
Gurobi 10.0.2 (win64) logging started Fri Jun 21 03:40:48 2024

Set parameter LogFile to value "log/log_difficulty1_MNL_DESKTOP-S7OVCUR_9_26.txt"
Gurobi Optimizer version 10.0.2 build v10.0.2rc0 (win64)

CPU model: Intel(R) Core(TM) i7-10510U CPU @ 1.80GHz, instruction set [SSE2|AVX|AVX2]
Thread count: 4 physical cores, 8 logical processors, using up to 8 threads

Optimize a model with 2020 rows, 676 columns and 4612 nonzeros
Model fingerprint: 0xb4b5c300
Variable types: 364 continuous, 312 integer (312 binary)
Coefficient statistics:
  Matrix range     [9e-04, 1e+03]
  Objective range  [1e+02, 6e+02]
  Bounds range     [1e+00, 1e+00]
  RHS range        [1e+00, 1e+00]
Found heuristic solution: objective -0.0000000
Presolve removed 224 rows and 104 columns
Presolve time: 0.03s
Presolved: 1796 rows, 572 columns, 4227 nonzeros
Found heuristic solution: objective 2304.5235265
Variable types: 308 continuous, 264 integer (264 binary)

Root relaxation: objective 1.561378e+04, 454 iterations, 0.02 seconds (0.00 work units)

    Nodes    |    Current Node    |     Objective Bounds      |     Work
 Expl Unexpl |  Obj  Depth IntInf | Incumbent    BestBd   Gap | It/Node Time

     0     0 15613.7760    0  164 2304.52353 15613.7760   578%     -    0s
H    0     0                    12001.928621 15613.7760  30.1%     -    0s
H    0     0                    12987.672144 15613.7760  20.2%     -    0s
H    0     0                    13606.091562 15613.7760  14.8%     -    0s
     0     0 14868.9994    0  171 13606.0916 14868.9994  9.28%     -    0s
     0     0 14849.0607    0  180 13606.0916 14849.0607  9.14%     -    0s
     0     0 14847.4469    0  180 13606.0916 14847.4469  9.12%     -    0s
     0     0 14648.7777    0  170 13606.0916 14648.7777  7.66%     -    0s
H    0     0                    13836.949775 14648.7777  5.87%     -    0s
     0     0 14616.7908    0  166 13836.9498 14616.7908  5.64%     -    0s
H    0     0                    14448.030062 14614.1417  1.15%     -    0s
     0     0 14614.1417    0  165 14448.0301 14614.1417  1.15%     -    0s
     0     0 14614.1417    0  166 14448.0301 14614.1417  1.15%     -    0s
H    0     0                    14469.965629 14614.1417  1.00%     -    0s
     0     0 14553.7741    0  114 14469.9656 14553.7741  0.58%     -    0s
     0     0 14551.9366    0  109 14469.9656 14551.9366  0.57%     -    0s
     0     0 14545.9675    0  107 14469.9656 14545.9675  0.53%     -    0s
     0     0 14545.9675    0  107 14469.9656 14545.9675  0.53%     -    0s
     0     0 14533.6571    0   85 14469.9656 14533.6571  0.44%     -    0s
H    0     0                    14474.847994 14533.6571  0.41%     -    0s
     0     0 14525.4921    0   82 14474.8480 14525.4921  0.35%     -    0s
     0     0 14525.1981    0   82 14474.8480 14525.1981  0.35%     -    0s
H    0     0                    14479.437268 14525.1981  0.32%     -    0s
H    0     0                    14509.938874 14525.1981  0.11%     -    0s
     0     0 14524.9825    0   22 14509.9389 14524.9825  0.10%     -    0s
H    0     0                    14511.324292 14524.9825  0.09%     -    0s
     0     0 14524.9825    0   43 14511.3243 14524.9825  0.09%     -    0s
H    0     0                    14514.075290 14524.9825  0.08%     -    0s
H    0     0                    14520.147849 14524.9825  0.03%     -    0s
     0     0 14524.9825    0    4 14520.1478 14524.9825  0.03%     -    0s

Cutting planes:
  Learned: 1
  Gomory: 14
  Implied bound: 9
  MIR: 13
  Flow cover: 14
  RLT: 10
  Relax-and-lift: 1
  BQP: 1

Explored 1 nodes (1996 simplex iterations) in 0.57 seconds (0.18 work units)
Thread count was 8 (of 8 available processors)

Solution count 10: 14520.1 14514.1 14511.3 ... 13606.1

Optimal solution found (tolerance 1.00e-04)
Best objective 1.452014784918e+04, best bound 1.452014784918e+04, gap 0.0000%
